unknown
(:binary-propagations  962
 :decisions            2329
 :del-clause           481
 :final-checks         10
 :max-generation       1
 :max-memory           27.59
 :memory               21.93
 :mk-bool-var          2405
 :mk-clause            712
 :mk-clause-binary     1424
 :num-allocs           196580665
 :num-checks           1
 :propagations         1715
 :quant-instantiations 481
 :restarts             9
 :rlimit-count         2853039
 :time                 0.31)
